centroides = 0;
nNurses = 154;
hours = 58;
demand = [25 21 4 2 19 4 24 9 35 25 1 33 26 8 14 26 34 15 31 36 36 23 31 2 27 32 13 32 13 32 12 21 24 4 3 13 16 24 37 36 4 27 4 2 3 34 27 20 22 24 4 18 35 1 27 2 20 6];
minHours = 14;
maxHours = 16;
maxConsec = 8;
maxPresence = 18;